<?xml version = "1.0" encoding="UTF-8" standalone="yes"?>
<CPLEXSolution version="1.2">
 <header
   problemName="inst_13_cut_n11"
   objectiveValue="61"
   solutionTypeValue="1"
   solutionTypeString="basic"
   solutionStatusValue="1"
   solutionStatusString="optimal"
   solutionMethodString="primal"
   primalFeasible="1"
   dualFeasible="1"
   simplexIterations="0"
   writeLevel="1"/>
 <quality
   epRHS="9.9999999999999995e-07"
   epOpt="9.9999999999999995e-07"
   maxPrimalInfeas="0"
   maxDualInfeas="0"
   maxPrimalResidual="0"
   maxDualResidual="0"
   maxX="1"
   maxPi="23"
   maxSlack="1443.5"
   maxRedCost="486"
   kappa="39.707633425473098"/>
 <linearConstraints>
  <constraint name="c0" index="0" status="BS" slack="430.5" dual="-0"/>
  <constraint name="c1" index="1" status="BS" slack="602.5" dual="-0"/>
  <constraint name="c2" index="2" status="BS" slack="423" dual="-0"/>
  <constraint name="c3" index="3" status="BS" slack="1443.5" dual="-0"/>
  <constraint name="c4" index="4" status="BS" slack="492.5" dual="-0"/>
  <constraint name="c5" index="5" status="BS" slack="450" dual="-0"/>
  <constraint name="c6" index="6" status="LL" slack="0" dual="-0"/>
  <constraint name="c7" index="7" status="BS" slack="1236.5" dual="-0"/>
  <constraint name="c8" index="8" status="BS" slack="1004.5" dual="-0"/>
  <constraint name="c9" index="9" status="BS" slack="1274" dual="-0"/>
  <constraint name="c10" index="10" status="BS" slack="1078" dual="-0"/>
  <constraint name="c11" index="11" status="BS" slack="754.5" dual="-0"/>
  <constraint name="c12" index="12" status="BS" slack="586.5" dual="-0"/>
  <constraint name="c13" index="13" status="BS" slack="375.5" dual="-0"/>
  <constraint name="c14" index="14" status="BS" slack="356.5" dual="-0"/>
  <constraint name="cut_1" index="15" status="BS" slack="0.5" dual="-0"/>
  <constraint name="cut_2" index="16" status="BS" slack="0.5" dual="-0"/>
  <constraint name="cut_3" index="17" status="LL" slack="0" dual="23"/>
  <constraint name="cut_4" index="18" status="BS" slack="0.5" dual="-0"/>
  <constraint name="cut_5" index="19" status="BS" slack="0.5" dual="-0"/>
  <constraint name="cut_6" index="20" status="BS" slack="0" dual="-0"/>
  <constraint name="cut_7" index="21" status="BS" slack="0.5" dual="-0"/>
  <constraint name="cut_8" index="22" status="BS" slack="0.5" dual="-0"/>
  <constraint name="cut_9" index="23" status="BS" slack="0.5" dual="-0"/>
  <constraint name="cut_10" index="24" status="BS" slack="0" dual="-0"/>
  <constraint name="cut_11" index="25" status="BS" slack="1" dual="-0"/>
 </linearConstraints>
 <variables>
  <variable name="x0" index="0" status="BS" value="0.5" reducedCost="0"/>
  <variable name="x1" index="1" status="LL" value="0" reducedCost="-272"/>
  <variable name="x2" index="2" status="LL" value="0" reducedCost="-369"/>
  <variable name="x3" index="3" status="LL" value="0" reducedCost="-486"/>
  <variable name="x4" index="4" status="LL" value="0" reducedCost="-353"/>
  <variable name="x5" index="5" status="LL" value="0" reducedCost="-213"/>
  <variable name="x6" index="6" status="LL" value="0" reducedCost="-231"/>
  <variable name="x7" index="7" status="LL" value="0" reducedCost="-347"/>
  <variable name="x8" index="8" status="LL" value="0" reducedCost="-434"/>
  <variable name="x9" index="9" status="LL" value="0" reducedCost="-108"/>
  <variable name="x10" index="10" status="UL" value="1" reducedCost="15"/>
  <variable name="x11" index="11" status="LL" value="0" reducedCost="-228"/>
  <variable name="x12" index="12" status="LL" value="0" reducedCost="-287"/>
  <variable name="x13" index="13" status="LL" value="0" reducedCost="-228"/>
  <variable name="x14" index="14" status="LL" value="0" reducedCost="-169"/>
  <variable name="s0" index="15" status="LL" value="0" reducedCost="0"/>
  <variable name="s1" index="16" status="LL" value="0" reducedCost="0"/>
  <variable name="s2" index="17" status="LL" value="0" reducedCost="0"/>
  <variable name="s3" index="18" status="LL" value="0" reducedCost="0"/>
  <variable name="s4" index="19" status="LL" value="0" reducedCost="0"/>
  <variable name="s5" index="20" status="LL" value="0" reducedCost="0"/>
  <variable name="s6" index="21" status="BS" value="1" reducedCost="0"/>
  <variable name="s7" index="22" status="LL" value="0" reducedCost="0"/>
  <variable name="s8" index="23" status="LL" value="0" reducedCost="0"/>
  <variable name="s9" index="24" status="LL" value="0" reducedCost="0"/>
  <variable name="s10" index="25" status="LL" value="0" reducedCost="0"/>
  <variable name="s11" index="26" status="LL" value="0" reducedCost="0"/>
  <variable name="s12" index="27" status="LL" value="0" reducedCost="0"/>
  <variable name="s13" index="28" status="LL" value="0" reducedCost="0"/>
  <variable name="s14" index="29" status="LL" value="0" reducedCost="0"/>
 </variables>
 <objectiveValues>
  <objective index="0" name="" value="61"/>
 </objectiveValues>
</CPLEXSolution>
